c graph1
p edge 10 38
e 1 3
e 2 6
e 3 2
e 4 3
e 5 9
e 6 4
e 7 4
e 8 5
e 9 2
e 10 3
e 2 8
e 7 1
e 10 8
e 8 3
e 7 10
e 2 1
e 4 10
e 1 10
e 5 3
e 2 5
e 10 6
e 9 1
e 10 9
e 7 3
e 5 10
e 4 2
e 8 8
e 8 1
e 7 6
e 9 8
e 7 9
e 8 6
e 9 4
e 5 7
e 7 8
e 1 1
e 3 6
e 4 5
